p cnf 225 2673
1 2 3 4 5 0
6 7 8 9 10 0
11 12 13 14 15 0
16 17 18 19 20 0
21 22 23 24 25 0
26 27 28 29 30 0
31 32 33 34 35 0
36 37 38 39 40 0
41 42 43 44 45 0
46 47 48 49 50 0
51 52 53 54 55 0
56 57 58 59 60 0
61 62 63 64 65 0
66 67 68 69 70 0
71 72 73 74 75 0
76 77 78 79 80 0
81 82 83 84 85 0
86 87 88 89 90 0
91 92 93 94 95 0
96 97 98 99 100 0
101 102 103 104 105 0
106 107 108 109 110 0
111 112 113 114 115 0
116 117 118 119 120 0
121 122 123 124 125 0
126 127 128 129 130 0
131 132 133 134 135 0
136 137 138 139 140 0
141 142 143 144 145 0
146 147 148 149 150 0
151 152 153 154 155 0
156 157 158 159 160 0
161 162 163 164 165 0
166 167 168 169 170 0
171 172 173 174 175 0
176 177 178 179 180 0
181 182 183 184 185 0
186 187 188 189 190 0
191 192 193 194 195 0
196 197 198 199 200 0
201 202 203 204 205 0
206 207 208 209 210 0
211 212 213 214 215 0
216 217 218 219 220 0
221 222 223 224 225 0
-1 -2 0
-1 -3 0
-1 -4 0
-1 -5 0
-2 -3 0
-2 -4 0
-2 -5 0
-3 -4 0
-3 -5 0
-4 -5 0
-6 -7 0
-6 -8 0
-6 -9 0
-6 -10 0
-7 -8 0
-7 -9 0
-7 -10 0
-8 -9 0
-8 -10 0
-9 -10 0
-11 -12 0
-11 -13 0
-11 -14 0
-11 -15 0
-12 -13 0
-12 -14 0
-12 -15 0
-13 -14 0
-13 -15 0
-14 -15 0
-16 -17 0
-16 -18 0
-16 -19 0
-16 -20 0
-17 -18 0
-17 -19 0
-17 -20 0
-18 -19 0
-18 -20 0
-19 -20 0
-21 -22 0
-21 -23 0
-21 -24 0
-21 -25 0
-22 -23 0
-22 -24 0
-22 -25 0
-23 -24 0
-23 -25 0
-24 -25 0
-26 -27 0
-26 -28 0
-26 -29 0
-26 -30 0
-27 -28 0
-27 -29 0
-27 -30 0
-28 -29 0
-28 -30 0
-29 -30 0
-31 -32 0
-31 -33 0
-31 -34 0
-31 -35 0
-32 -33 0
-32 -34 0
-32 -35 0
-33 -34 0
-33 -35 0
-34 -35 0
-36 -37 0
-36 -38 0
-36 -39 0
-36 -40 0
-37 -38 0
-37 -39 0
-37 -40 0
-38 -39 0
-38 -40 0
-39 -40 0
-41 -42 0
-41 -43 0
-41 -44 0
-41 -45 0
-42 -43 0
-42 -44 0
-42 -45 0
-43 -44 0
-43 -45 0
-44 -45 0
-46 -47 0
-46 -48 0
-46 -49 0
-46 -50 0
-47 -48 0
-47 -49 0
-47 -50 0
-48 -49 0
-48 -50 0
-49 -50 0
-51 -52 0
-51 -53 0
-51 -54 0
-51 -55 0
-52 -53 0
-52 -54 0
-52 -55 0
-53 -54 0
-53 -55 0
-54 -55 0
-56 -57 0
-56 -58 0
-56 -59 0
-56 -60 0
-57 -58 0
-57 -59 0
-57 -60 0
-58 -59 0
-58 -60 0
-59 -60 0
-61 -62 0
-61 -63 0
-61 -64 0
-61 -65 0
-62 -63 0
-62 -64 0
-62 -65 0
-63 -64 0
-63 -65 0
-64 -65 0
-66 -67 0
-66 -68 0
-66 -69 0
-66 -70 0
-67 -68 0
-67 -69 0
-67 -70 0
-68 -69 0
-68 -70 0
-69 -70 0
-71 -72 0
-71 -73 0
-71 -74 0
-71 -75 0
-72 -73 0
-72 -74 0
-72 -75 0
-73 -74 0
-73 -75 0
-74 -75 0
-76 -77 0
-76 -78 0
-76 -79 0
-76 -80 0
-77 -78 0
-77 -79 0
-77 -80 0
-78 -79 0
-78 -80 0
-79 -80 0
-81 -82 0
-81 -83 0
-81 -84 0
-81 -85 0
-82 -83 0
-82 -84 0
-82 -85 0
-83 -84 0
-83 -85 0
-84 -85 0
-86 -87 0
-86 -88 0
-86 -89 0
-86 -90 0
-87 -88 0
-87 -89 0
-87 -90 0
-88 -89 0
-88 -90 0
-89 -90 0
-91 -92 0
-91 -93 0
-91 -94 0
-91 -95 0
-92 -93 0
-92 -94 0
-92 -95 0
-93 -94 0
-93 -95 0
-94 -95 0
-96 -97 0
-96 -98 0
-96 -99 0
-96 -100 0
-97 -98 0
-97 -99 0
-97 -100 0
-98 -99 0
-98 -100 0
-99 -100 0
-101 -102 0
-101 -103 0
-101 -104 0
-101 -105 0
-102 -103 0
-102 -104 0
-102 -105 0
-103 -104 0
-103 -105 0
-104 -105 0
-106 -107 0
-106 -108 0
-106 -109 0
-106 -110 0
-107 -108 0
-107 -109 0
-107 -110 0
-108 -109 0
-108 -110 0
-109 -110 0
-111 -112 0
-111 -113 0
-111 -114 0
-111 -115 0
-112 -113 0
-112 -114 0
-112 -115 0
-113 -114 0
-113 -115 0
-114 -115 0
-116 -117 0
-116 -118 0
-116 -119 0
-116 -120 0
-117 -118 0
-117 -119 0
-117 -120 0
-118 -119 0
-118 -120 0
-119 -120 0
-121 -122 0
-121 -123 0
-121 -124 0
-121 -125 0
-122 -123 0
-122 -124 0
-122 -125 0
-123 -124 0
-123 -125 0
-124 -125 0
-126 -127 0
-126 -128 0
-126 -129 0
-126 -130 0
-127 -128 0
-127 -129 0
-127 -130 0
-128 -129 0
-128 -130 0
-129 -130 0
-131 -132 0
-131 -133 0
-131 -134 0
-131 -135 0
-132 -133 0
-132 -134 0
-132 -135 0
-133 -134 0
-133 -135 0
-134 -135 0
-136 -137 0
-136 -138 0
-136 -139 0
-136 -140 0
-137 -138 0
-137 -139 0
-137 -140 0
-138 -139 0
-138 -140 0
-139 -140 0
-141 -142 0
-141 -143 0
-141 -144 0
-141 -145 0
-142 -143 0
-142 -144 0
-142 -145 0
-143 -144 0
-143 -145 0
-144 -145 0
-146 -147 0
-146 -148 0
-146 -149 0
-146 -150 0
-147 -148 0
-147 -149 0
-147 -150 0
-148 -149 0
-148 -150 0
-149 -150 0
-151 -152 0
-151 -153 0
-151 -154 0
-151 -155 0
-152 -153 0
-152 -154 0
-152 -155 0
-153 -154 0
-153 -155 0
-154 -155 0
-156 -157 0
-156 -158 0
-156 -159 0
-156 -160 0
-157 -158 0
-157 -159 0
-157 -160 0
-158 -159 0
-158 -160 0
-159 -160 0
-161 -162 0
-161 -163 0
-161 -164 0
-161 -165 0
-162 -163 0
-162 -164 0
-162 -165 0
-163 -164 0
-163 -165 0
-164 -165 0
-166 -167 0
-166 -168 0
-166 -169 0
-166 -170 0
-167 -168 0
-167 -169 0
-167 -170 0
-168 -169 0
-168 -170 0
-169 -170 0
-171 -172 0
-171 -173 0
-171 -174 0
-171 -175 0
-172 -173 0
-172 -174 0
-172 -175 0
-173 -174 0
-173 -175 0
-174 -175 0
-176 -177 0
-176 -178 0
-176 -179 0
-176 -180 0
-177 -178 0
-177 -179 0
-177 -180 0
-178 -179 0
-178 -180 0
-179 -180 0
-181 -182 0
-181 -183 0
-181 -184 0
-181 -185 0
-182 -183 0
-182 -184 0
-182 -185 0
-183 -184 0
-183 -185 0
-184 -185 0
-186 -187 0
-186 -188 0
-186 -189 0
-186 -190 0
-187 -188 0
-187 -189 0
-187 -190 0
-188 -189 0
-188 -190 0
-189 -190 0
-191 -192 0
-191 -193 0
-191 -194 0
-191 -195 0
-192 -193 0
-192 -194 0
-192 -195 0
-193 -194 0
-193 -195 0
-194 -195 0
-196 -197 0
-196 -198 0
-196 -199 0
-196 -200 0
-197 -198 0
-197 -199 0
-197 -200 0
-198 -199 0
-198 -200 0
-199 -200 0
-201 -202 0
-201 -203 0
-201 -204 0
-201 -205 0
-202 -203 0
-202 -204 0
-202 -205 0
-203 -204 0
-203 -205 0
-204 -205 0
-206 -207 0
-206 -208 0
-206 -209 0
-206 -210 0
-207 -208 0
-207 -209 0
-207 -210 0
-208 -209 0
-208 -210 0
-209 -210 0
-211 -212 0
-211 -213 0
-211 -214 0
-211 -215 0
-212 -213 0
-212 -214 0
-212 -215 0
-213 -214 0
-213 -215 0
-214 -215 0
-216 -217 0
-216 -218 0
-216 -219 0
-216 -220 0
-217 -218 0
-217 -219 0
-217 -220 0
-218 -219 0
-218 -220 0
-219 -220 0
-221 -222 0
-221 -223 0
-221 -224 0
-221 -225 0
-222 -223 0
-222 -224 0
-222 -225 0
-223 -224 0
-223 -225 0
-224 -225 0
-3 -98 0
-1 -99 0
-4 -100 0
-2 -97 0
-4 -98 0
-3 -100 0
-2 -98 0
-1 -100 0
-3 -97 0
-4 -96 0
-5 -96 0
-5 -97 0
-3 -96 0
-2 -99 0
-5 -100 0
-5 -99 0
-5 -98 0
-4 -97 0
-2 -96 0
-1 -96 0
-1 -98 0
-3 -99 0
-5 -129 0
-1 -128 0
-2 -130 0
-3 -126 0
-1 -126 0
-5 -126 0
-3 -128 0
-1 -127 0
-5 -128 0
-4 -128 0
-2 -129 0
-2 -126 0
-3 -129 0
-4 -126 0
-1 -129 0
-4 -130 0
-1 -130 0
-4 -127 0
-3 -130 0
-4 -129 0
-5 -130 0
-3 -127 0
-3 -157 0
-3 -156 0
-4 -160 0
-1 -157 0
-2 -160 0
-4 -157 0
-3 -160 0
-2 -158 0
-2 -157 0
-3 -158 0
-3 -159 0
-4 -159 0
-4 -156 0
-5 -157 0
-1 -158 0
-4 -158 0
-5 -159 0
-2 -156 0
-2 -159 0
-1 -156 0
-5 -160 0
-5 -156 0
-5 -189 0
-2 -189 0
-1 -189 0
-1 -187 0
-3 -188 0
-3 -189 0
-2 -190 0
-2 -187 0
-2 -188 0
-1 -188 0
-3 -187 0
-3 -190 0
-4 -190 0
-4 -187 0
-5 -186 0
-4 -186 0
-2 -186 0
-3 -186 0
-4 -189 0
-1 -190 0
-5 -190 0
-5 -188 0
-7 -13 0
-8 -12 0
-7 -14 0
-10 -14 0
-9 -12 0
-6 -14 0
-6 -11 0
-7 -12 0
-9 -13 0
-10 -13 0
-7 -11 0
-8 -13 0
-10 -15 0
-6 -13 0
-9 -15 0
-10 -11 0
-6 -15 0
-7 -15 0
-9 -11 0
-10 -12 0
-8 -15 0
-6 -12 0
-8 -24 0
-10 -24 0
-10 -25 0
-9 -25 0
-6 -23 0
-9 -24 0
-8 -25 0
-7 -24 0
-7 -21 0
-6 -22 0
-8 -23 0
-7 -23 0
-9 -21 0
-10 -21 0
-9 -23 0
-6 -24 0
-10 -22 0
-7 -22 0
-6 -21 0
-10 -23 0
-6 -25 0
-7 -25 0
-10 -26 0
-7 -26 0
-9 -27 0
-8 -26 0
-6 -30 0
-7 -30 0
-6 -28 0
-6 -26 0
-6 -27 0
-10 -29 0
-7 -29 0
-7 -28 0
-10 -28 0
-9 -26 0
-7 -27 0
-6 -29 0
-10 -30 0
-9 -30 0
-10 -27 0
-8 -28 0
-8 -29 0
-9 -28 0
-7 -153 0
-6 -152 0
-9 -152 0
-6 -154 0
-8 -152 0
-9 -153 0
-6 -155 0
-10 -154 0
-7 -155 0
-6 -151 0
-6 -153 0
-10 -153 0
-7 -152 0
-8 -155 0
-9 -151 0
-7 -151 0
-10 -151 0
-9 -155 0
-8 -153 0
-9 -154 0
-7 -154 0
-10 -155 0
-6 -188 0
-7 -188 0
-7 -187 0
-9 -189 0
-8 -190 0
-7 -190 0
-10 -190 0
-8 -189 0
-8 -188 0
-6 -189 0
-10 -187 0
-9 -186 0
-10 -188 0
-6 -187 0
-9 -187 0
-9 -190 0
-7 -189 0
-10 -189 0
-8 -186 0
-8 -187 0
-6 -186 0
-7 -186 0
-8 -200 0
-10 -200 0
-7 -196 0
-7 -198 0
-9 -200 0
-6 -200 0
-8 -199 0
-10 -196 0
-8 -196 0
-9 -196 0
-9 -198 0
-7 -199 0
-10 -197 0
-10 -198 0
-6 -198 0
-6 -197 0
-9 -197 0
-6 -196 0
-8 -197 0
-10 -199 0
-9 -199 0
-8 -198 0
-8 -212 0
-7 -213 0
-10 -215 0
-9 -215 0
-8 -213 0
-8 -211 0
-6 -213 0
-6 -215 0
-7 -211 0
-6 -212 0
-9 -214 0
-9 -213 0
-9 -212 0
-10 -214 0
-10 -213 0
-7 -212 0
-8 -214 0
-6 -211 0
-7 -215 0
-7 -214 0
-9 -211 0
-10 -211 0
-13 -33 0
-12 -35 0
-11 -34 0
-14 -32 0
-14 -35 0
-13 -32 0
-11 -35 0
-13 -35 0
-15 -33 0
-15 -31 0
-13 -34 0
-15 -32 0
-11 -33 0
-12 -32 0
-11 -31 0
-15 -34 0
-15 -35 0
-12 -34 0
-14 -34 0
-11 -32 0
-13 -31 0
-12 -33 0
-14 -43 0
-13 -44 0
-11 -45 0
-14 -42 0
-14 -44 0
-13 -42 0
-13 -45 0
-11 -41 0
-12 -44 0
-13 -41 0
-13 -43 0
-11 -43 0
-12 -41 0
-15 -43 0
-12 -43 0
-12 -42 0
-12 -45 0
-11 -44 0
-15 -44 0
-14 -45 0
-11 -42 0
-15 -42 0
-14 -97 0
-14 -98 0
-11 -96 0
-11 -97 0
-12 -97 0
-15 -97 0
-13 -97 0
-13 -96 0
-12 -98 0
-13 -100 0
-15 -96 0
-15 -100 0
-12 -100 0
-13 -98 0
-11 -99 0
-14 -96 0
-11 -100 0
-15 -99 0
-14 -100 0
-12 -99 0
-14 -99 0
-13 -99 0
-15 -146 0
-11 -147 0
-13 -147 0
-14 -148 0
-15 -147 0
-14 -146 0
-12 -150 0
-12 -147 0
-11 -149 0
-14 -149 0
-12 -149 0
-11 -146 0
-14 -150 0
-12 -146 0
-13 -148 0
-11 -150 0
-11 -148 0
-12 -148 0
-14 -147 0
-13 -146 0
-13 -150 0
-15 -149 0
-15 -211 0
-14 -212 0
-11 -215 0
-14 -211 0
-15 -215 0
-12 -211 0
-11 -211 0
-13 -211 0
-13 -212 0
-12 -215 0
-14 -213 0
-12 -213 0
-11 -214 0
-12 -212 0
-14 -214 0
-14 -215 0
-15 -214 0
-13 -213 0
-15 -212 0
-11 -212 0
-13 -215 0
-13 -214 0
-18 -42 0
-17 -45 0
-19 -45 0
-16 -43 0
-18 -44 0
-16 -45 0
-19 -42 0
-20 -43 0
-16 -44 0
-19 -44 0
-19 -41 0
-20 -44 0
-19 -43 0
-18 -41 0
-17 -43 0
-17 -44 0
-18 -45 0
-18 -43 0
-20 -45 0
-17 -42 0
-20 -41 0
-20 -42 0
-19 -46 0
-20 -46 0
-19 -49 0
-19 -48 0
-16 -50 0
-18 -47 0
-20 -50 0
-16 -46 0
-17 -47 0
-19 -47 0
-18 -49 0
-17 -46 0
-18 -50 0
-17 -49 0
-16 -49 0
-20 -48 0
-17 -50 0
-16 -47 0
-17 -48 0
-20 -47 0
-20 -49 0
-18 -46 0
-19 -109 0
-19 -110 0
-16 -108 0
-19 -108 0
-18 -110 0
-18 -109 0
-16 -109 0
-20 -109 0
-17 -110 0
-17 -106 0
-16 -107 0
-20 -106 0
-20 -108 0
-16 -110 0
-20 -107 0
-19 -106 0
-18 -106 0
-20 -110 0
-18 -108 0
-18 -107 0
-17 -109 0
-16 -106 0
-17 -135 0
-16 -135 0
-20 -133 0
-16 -133 0
-19 -131 0
-18 -135 0
-19 -132 0
-16 -132 0
-16 -134 0
-17 -131 0
-19 -134 0
-19 -133 0
-20 -132 0
-18 -134 0
-17 -134 0
-19 -135 0
-17 -132 0
-20 -135 0
-20 -131 0
-18 -133 0
-16 -131 0
-18 -132 0
-21 -61 0
-23 -64 0
-21 -64 0
-25 -65 0
-21 -63 0
-21 -62 0
-22 -61 0
-24 -62 0
-22 -64 0
-24 -65 0
-23 -62 0
-24 -64 0
-23 -65 0
-24 -61 0
-25 -63 0
-21 -65 0
-22 -65 0
-22 -63 0
-25 -62 0
-22 -62 0
-23 -63 0
-23 -61 0
-23 -113 0
-21 -112 0
-22 -114 0
-22 -112 0
-24 -115 0
-23 -115 0
-21 -114 0
-25 -114 0
-23 -112 0
-25 -113 0
-22 -115 0
-24 -113 0
-25 -111 0
-22 -111 0
-24 -112 0
-24 -114 0
-23 -111 0
-21 -115 0
-25 -115 0
-23 -114 0
-21 -111 0
-24 -111 0
-22 -134 0
-23 -135 0
-22 -131 0
-25 -133 0
-22 -132 0
-24 -131 0
-25 -132 0
-25 -131 0
-21 -135 0
-22 -135 0
-24 -133 0
-21 -132 0
-21 -131 0
-21 -134 0
-22 -133 0
-25 -135 0
-24 -134 0
-23 -133 0
-23 -132 0
-24 -132 0
-24 -135 0
-23 -131 0
-22 -146 0
-25 -150 0
-24 -147 0
-22 -147 0
-21 -148 0
-25 -148 0
-21 -147 0
-23 -146 0
-24 -146 0
-23 -147 0
-23 -150 0
-23 -148 0
-24 -150 0
-25 -147 0
-22 -150 0
-24 -148 0
-25 -146 0
-21 -150 0
-22 -148 0
-21 -149 0
-21 -146 0
-23 -149 0
-23 -151 0
-22 -154 0
-25 -154 0
-24 -154 0
-21 -154 0
-22 -153 0
-25 -151 0
-22 -152 0
-22 -151 0
-25 -155 0
-21 -155 0
-21 -152 0
-21 -151 0
-24 -153 0
-24 -152 0
-23 -155 0
-23 -153 0
-25 -153 0
-21 -153 0
-24 -155 0
-23 -154 0
-23 -152 0
-27 -31 0
-26 -34 0
-27 -35 0
-27 -34 0
-26 -32 0
-29 -35 0
-29 -34 0
-27 -32 0
-28 -33 0
-26 -33 0
-28 -35 0
-27 -33 0
-28 -34 0
-28 -32 0
-29 -33 0
-26 -35 0
-26 -31 0
-29 -32 0
-30 -32 0
-29 -31 0
-30 -33 0
-30 -34 0
-26 -59 0
-30 -58 0
-26 -57 0
-30 -59 0
-29 -56 0
-30 -56 0
-29 -57 0
-26 -58 0
-27 -58 0
-26 -60 0
-28 -60 0
-30 -57 0
-28 -56 0
-30 -60 0
-27 -57 0
-27 -56 0
-29 -59 0
-26 -56 0
-28 -58 0
-28 -59 0
-27 -59 0
-29 -60 0
-28 -88 0
-27 -90 0
-26 -90 0
-30 -87 0
-26 -89 0
-26 -86 0
-29 -90 0
-30 -90 0
-30 -89 0
-27 -89 0
-26 -87 0
-28 -90 0
-29 -86 0
-29 -88 0
-27 -86 0
-29 -87 0
-26 -88 0
-30 -86 0
-28 -87 0
-27 -87 0
-28 -86 0
-30 -88 0
-28 -120 0
-29 -117 0
-29 -118 0
-30 -118 0
-27 -117 0
-27 -116 0
-28 -117 0
-30 -117 0
-28 -119 0
-30 -119 0
-29 -116 0
-29 -120 0
-26 -118 0
-28 -118 0
-26 -120 0
-27 -119 0
-30 -116 0
-30 -120 0
-27 -118 0
-26 -117 0
-27 -120 0
-28 -116 0
-28 -124 0
-27 -123 0
-30 -123 0
-30 -125 0
-28 -121 0
-26 -124 0
-27 -124 0
-26 -121 0
-29 -123 0
-26 -122 0
-30 -121 0
-28 -125 0
-27 -122 0
-26 -123 0
-27 -121 0
-29 -122 0
-27 -125 0
-29 -124 0
-30 -122 0
-30 -124 0
-29 -121 0
-29 -125 0
-27 -161 0
-26 -161 0
-26 -164 0
-26 -163 0
-30 -164 0
-27 -164 0
-30 -163 0
-28 -163 0
-29 -163 0
-28 -165 0
-30 -162 0
-27 -163 0
-27 -162 0
-29 -165 0
-29 -161 0
-29 -164 0
-28 -164 0
-26 -165 0
-30 -161 0
-27 -165 0
-29 -162 0
-26 -162 0
-27 -166 0
-28 -166 0
-30 -169 0
-26 -170 0
-26 -168 0
-30 -170 0
-28 -170 0
-27 -169 0
-29 -168 0
-30 -168 0
-29 -167 0
-28 -168 0
-28 -169 0
-27 -170 0
-26 -167 0
-30 -166 0
-26 -169 0
-27 -167 0
-28 -167 0
-30 -167 0
-29 -169 0
-26 -166 0
-29 -185 0
-26 -185 0
-30 -185 0
-27 -181 0
-29 -184 0
-28 -181 0
-30 -183 0
-29 -181 0
-26 -182 0
-28 -182 0
-27 -183 0
-28 -183 0
-28 -185 0
-28 -184 0
-30 -181 0
-26 -181 0
-27 -184 0
-27 -185 0
-26 -183 0
-30 -182 0
-30 -184 0
-26 -184 0
-35 -40 0
-35 -38 0
-32 -36 0
-32 -37 0
-34 -37 0
-33 -37 0
-35 -37 0
-33 -38 0
-32 -38 0
-34 -38 0
-31 -36 0
-33 -36 0
-32 -40 0
-34 -39 0
-33 -40 0
-33 -39 0
-31 -38 0
-31 -37 0
-31 -40 0
-32 -39 0
-34 -36 0
-31 -39 0
-33 -59 0
-34 -59 0
-35 -60 0
-32 -60 0
-34 -58 0
-31 -60 0
-32 -57 0
-35 -57 0
-33 -56 0
-32 -58 0
-33 -60 0
-34 -57 0
-35 -56 0
-33 -57 0
-31 -58 0
-31 -57 0
-35 -58 0
-31 -56 0
-31 -59 0
-32 -56 0
-34 -60 0
-34 -56 0
-34 -67 0
-31 -70 0
-33 -70 0
-31 -66 0
-33 -66 0
-32 -70 0
-33 -68 0
-35 -69 0
-33 -69 0
-35 -67 0
-32 -68 0
-31 -68 0
-32 -66 0
-32 -69 0
-35 -66 0
-31 -67 0
-34 -66 0
-35 -70 0
-34 -68 0
-32 -67 0
-34 -70 0
-35 -68 0
-33 -119 0
-31 -120 0
-31 -117 0
-34 -116 0
-34 -117 0
-35 -120 0
-34 -118 0
-34 -119 0
-35 -119 0
-32 -117 0
-33 -117 0
-32 -118 0
-31 -118 0
-31 -119 0
-32 -116 0
-35 -118 0
-33 -120 0
-32 -119 0
-32 -120 0
-35 -116 0
-35 -117 0
-33 -116 0
-34 -151 0
-31 -155 0
-35 -152 0
-34 -152 0
-33 -152 0
-33 -151 0
-35 -151 0
-32 -151 0
-34 -153 0
-32 -154 0
-31 -154 0
-35 -155 0
-33 -155 0
-34 -155 0
-33 -153 0
-33 -154 0
-32 -153 0
-31 -153 0
-31 -151 0
-35 -153 0
-32 -155 0
-34 -154 0
-35 -183 0
-34 -183 0
-32 -184 0
-32 -185 0
-34 -184 0
-33 -182 0
-32 -183 0
-32 -181 0
-31 -184 0
-33 -185 0
-33 -183 0
-31 -183 0
-34 -182 0
-33 -184 0
-35 -182 0
-35 -184 0
-32 -182 0
-34 -181 0
-33 -181 0
-35 -181 0
-31 -182 0
-35 -185 0
-37 -47 0
-39 -47 0
-39 -49 0
-38 -49 0
-36 -50 0
-36 -48 0
-40 -47 0
-36 -49 0
-38 -47 0
-40 -48 0
-37 -50 0
-36 -46 0
-37 -48 0
-36 -47 0
-37 -49 0
-38 -50 0
-40 -46 0
-39 -50 0
-39 -46 0
-39 -48 0
-38 -46 0
-40 -50 0
-37 -80 0
-36 -78 0
-36 -76 0
-38 -80 0
-39 -76 0
-37 -76 0
-38 -78 0
-38 -77 0
-37 -77 0
-39 -77 0
-40 -80 0
-36 -80 0
-39 -78 0
-40 -76 0
-40 -79 0
-36 -77 0
-39 -80 0
-39 -79 0
-38 -76 0
-38 -79 0
-40 -78 0
-37 -78 0
-38 -171 0
-37 -173 0
-40 -175 0
-40 -174 0
-37 -175 0
-37 -171 0
-39 -173 0
-39 -174 0
-38 -172 0
-39 -172 0
-40 -171 0
-36 -171 0
-37 -174 0
-36 -173 0
-40 -172 0
-38 -174 0
-36 -175 0
-36 -174 0
-38 -173 0
-37 -172 0
-39 -175 0
-36 -172 0
-39 -212 0
-37 -211 0
-38 -214 0
-36 -211 0
-40 -212 0
-37 -212 0
-36 -212 0
-36 -214 0
-37 -213 0
-37 -214 0
-37 -215 0
-38 -211 0
-40 -213 0
-36 -213 0
-40 -214 0
-36 -215 0
-39 -211 0
-40 -211 0
-39 -215 0
-38 -215 0
-38 -212 0
-40 -215 0
-41 -55 0
-44 -52 0
-45 -55 0
-44 -53 0
-42 -55 0
-43 -53 0
-42 -52 0
-41 -51 0
-44 -54 0
-42 -54 0
-42 -53 0
-43 -55 0
-44 -51 0
-43 -51 0
-41 -53 0
-45 -53 0
-43 -54 0
-42 -51 0
-41 -54 0
-44 -55 0
-45 -52 0
-45 -51 0
-43 -63 0
-45 -63 0
-41 -62 0
-45 -64 0
-41 -65 0
-41 -61 0
-44 -61 0
-43 -65 0
-45 -61 0
-43 -61 0
-43 -62 0
-42 -61 0
-44 -65 0
-42 -63 0
-43 -64 0
-42 -64 0
-44 -63 0
-44 -64 0
-41 -64 0
-44 -62 0
-45 -62 0
-45 -65 0
-44 -71 0
-42 -71 0
-44 -73 0
-41 -73 0
-44 -74 0
-44 -75 0
-43 -74 0
-43 -71 0
-41 -71 0
-45 -73 0
-42 -73 0
-42 -74 0
-41 -75 0
-41 -74 0
-42 -75 0
-44 -72 0
-42 -72 0
-45 -74 0
-43 -72 0
-43 -73 0
-45 -71 0
-45 -72 0
-45 -156 0
-44 -156 0
-41 -156 0
-43 -156 0
-42 -157 0
-41 -157 0
-44 -158 0
-44 -160 0
-42 -156 0
-42 -160 0
-43 -158 0
-45 -157 0
-44 -157 0
-44 -159 0
-43 -159 0
-45 -159 0
-45 -160 0
-41 -159 0
-45 -158 0
-42 -159 0
-42 -158 0
-41 -158 0
-47 -114 0
-46 -113 0
-47 -112 0
-50 -112 0
-48 -111 0
-49 -111 0
-46 -114 0
-47 -115 0
-48 -115 0
-50 -113 0
-49 -112 0
-47 -113 0
-50 -115 0
-50 -111 0
-48 -113 0
-48 -114 0
-46 -115 0
-50 -114 0
-49 -115 0
-49 -113 0
-46 -112 0
-47 -111 0
-49 -200 0
-47 -200 0
-50 -200 0
-48 -198 0
-47 -196 0
-46 -197 0
-49 -199 0
-50 -198 0
-50 -197 0
-46 -199 0
-47 -198 0
-48 -197 0
-46 -200 0
-49 -196 0
-48 -200 0
-48 -196 0
-50 -196 0
-46 -196 0
-49 -197 0
-49 -198 0
-50 -199 0
-46 -198 0
-48 -203 0
-49 -205 0
-47 -202 0
-48 -202 0
-48 -205 0
-46 -203 0
-46 -201 0
-50 -205 0
-49 -202 0
-46 -205 0
-49 -201 0
-48 -201 0
-47 -203 0
-47 -205 0
-47 -204 0
-46 -204 0
-50 -201 0
-50 -203 0
-48 -204 0
-49 -203 0
-46 -202 0
-50 -204 0
-54 -99 0
-51 -98 0
-52 -98 0
-53 -98 0
-51 -99 0
-52 -99 0
-53 -100 0
-51 -100 0
-55 -99 0
-55 -96 0
-53 -97 0
-54 -97 0
-54 -98 0
-53 -96 0
-51 -96 0
-55 -100 0
-52 -97 0
-53 -99 0
-54 -100 0
-51 -97 0
-55 -98 0
-52 -96 0
-52 -128 0
-54 -129 0
-51 -126 0
-51 -128 0
-52 -130 0
-53 -126 0
-53 -130 0
-55 -128 0
-53 -128 0
-51 -130 0
-52 -129 0
-55 -127 0
-55 -130 0
-52 -126 0
-54 -126 0
-51 -129 0
-53 -129 0
-51 -127 0
-54 -127 0
-55 -129 0
-52 -127 0
-55 -126 0
-53 -162 0
-51 -165 0
-53 -165 0
-53 -164 0
-55 -162 0
-54 -163 0
-51 -164 0
-55 -161 0
-54 -161 0
-55 -165 0
-52 -163 0
-54 -165 0
-52 -161 0
-54 -164 0
-53 -163 0
-55 -163 0
-51 -162 0
-53 -161 0
-51 -163 0
-52 -164 0
-52 -165 0
-52 -162 0
-52 -189 0
-52 -186 0
-51 -187 0
-51 -189 0
-55 -187 0
-55 -189 0
-52 -187 0
-54 -189 0
-55 -186 0
-52 -188 0
-51 -190 0
-51 -188 0
-53 -190 0
-55 -188 0
-53 -186 0
-53 -189 0
-54 -190 0
-53 -187 0
-54 -186 0
-53 -188 0
-52 -190 0
-54 -187 0
-55 -204 0
-55 -203 0
-53 -204 0
-51 -202 0
-53 -201 0
-52 -205 0
-52 -202 0
-51 -204 0
-55 -205 0
-53 -205 0
-54 -205 0
-51 -203 0
-51 -205 0
-54 -202 0
-55 -201 0
-53 -202 0
-52 -204 0
-54 -203 0
-51 -201 0
-55 -202 0
-54 -204 0
-53 -203 0
-54 -209 0
-53 -210 0
-53 -208 0
-54 -206 0
-52 -207 0
-55 -208 0
-52 -208 0
-51 -206 0
-55 -207 0
-55 -209 0
-54 -207 0
-51 -208 0
-51 -209 0
-51 -207 0
-55 -206 0
-53 -207 0
-52 -206 0
-53 -209 0
-52 -209 0
-54 -208 0
-51 -210 0
-55 -210 0
-59 -93 0
-56 -94 0
-58 -92 0
-60 -93 0
-57 -91 0
-57 -95 0
-60 -95 0
-57 -92 0
-58 -95 0
-59 -94 0
-56 -93 0
-58 -94 0
-56 -92 0
-57 -93 0
-59 -95 0
-56 -91 0
-59 -92 0
-60 -94 0
-57 -94 0
-60 -92 0
-60 -91 0
-58 -91 0
-65 -135 0
-65 -133 0
-61 -132 0
-61 -131 0
-62 -133 0
-64 -135 0
-64 -133 0
-62 -135 0
-61 -133 0
-63 -134 0
-63 -135 0
-64 -131 0
-64 -134 0
-65 -134 0
-63 -132 0
-62 -132 0
-61 -134 0
-65 -132 0
-61 -135 0
-64 -132 0
-65 -131 0
-62 -131 0
-63 -153 0
-64 -154 0
-64 -155 0
-65 -154 0
-63 -152 0
-65 -152 0
-61 -151 0
-62 -154 0
-63 -155 0
-61 -154 0
-64 -152 0
-65 -153 0
-65 -151 0
-64 -153 0
-63 -154 0
-63 -151 0
-61 -152 0
-64 -151 0
-62 -153 0
-62 -152 0
-61 -153 0
-61 -155 0
-64 -205 0
-65 -202 0
-63 -202 0
-65 -205 0
-64 -203 0
-62 -205 0
-62 -204 0
-62 -202 0
-61 -202 0
-63 -204 0
-64 -201 0
-63 -203 0
-62 -201 0
-64 -202 0
-61 -203 0
-65 -201 0
-64 -204 0
-61 -205 0
-65 -204 0
-63 -201 0
-61 -201 0
-62 -203 0
-67 -104 0
-66 -104 0
-68 -104 0
-69 -104 0
-69 -102 0
-68 -102 0
-70 -101 0
-70 -103 0
-70 -105 0
-68 -105 0
-66 -101 0
-68 -103 0
-68 -101 0
-70 -102 0
-66 -102 0
-70 -104 0
-67 -103 0
-66 -103 0
-69 -101 0
-67 -102 0
-67 -105 0
-69 -103 0
-68 -145 0
-66 -142 0
-69 -145 0
-66 -141 0
-69 -141 0
-68 -143 0
-67 -141 0
-66 -144 0
-70 -145 0
-69 -143 0
-68 -144 0
-67 -143 0
-70 -142 0
-66 -145 0
-66 -143 0
-68 -141 0
-70 -141 0
-67 -144 0
-67 -145 0
-67 -142 0
-69 -144 0
-70 -143 0
-66 -152 0
-68 -155 0
-66 -151 0
-68 -151 0
-67 -153 0
-70 -151 0
-70 -153 0
-68 -152 0
-66 -153 0
-70 -155 0
-69 -152 0
-69 -155 0
-67 -155 0
-67 -151 0
-70 -154 0
-70 -152 0
-69 -153 0
-69 -154 0
-68 -153 0
-69 -151 0
-66 -155 0
-66 -154 0
-72 -116 0
-73 -120 0
-72 -118 0
-74 -118 0
-75 -117 0
-71 -116 0
-75 -116 0
-72 -117 0
-73 -117 0
-75 -120 0
-75 -118 0
-71 -119 0
-74 -116 0
-73 -119 0
-73 -116 0
-74 -119 0
-72 -120 0
-74 -120 0
-71 -118 0
-74 -117 0
-73 -118 0
-75 -119 0
-79 -99 0
-80 -98 0
-76 -98 0
-78 -99 0
-77 -98 0
-78 -96 0
-77 -99 0
-77 -96 0
-78 -98 0
-80 -99 0
-77 -97 0
-77 -100 0
-79 -97 0
-76 -97 0
-80 -96 0
-76 -96 0
-80 -100 0
-76 -99 0
-79 -98 0
-79 -100 0
-78 -100 0
-80 -97 0
-77 -139 0
-79 -139 0
-76 -140 0
-78 -136 0
-79 -140 0
-78 -138 0
-77 -138 0
-78 -139 0
-77 -136 0
-79 -138 0
-76 -139 0
-76 -136 0
-80 -136 0
-78 -140 0
-80 -140 0
-80 -138 0
-76 -138 0
-80 -139 0
-77 -140 0
-78 -137 0
-80 -137 0
-76 -137 0
-79 -199 0
-79 -197 0
-76 -198 0
-79 -196 0
-76 -199 0
-80 -198 0
-78 -197 0
-80 -200 0
-79 -198 0
-77 -199 0
-79 -200 0
-78 -196 0
-78 -200 0
-80 -197 0
-80 -196 0
-76 -196 0
-77 -200 0
-80 -199 0
-76 -197 0
-78 -199 0
-77 -196 0
-76 -200 0
-79 -202 0
-77 -201 0
-76 -204 0
-79 -203 0
-80 -201 0
-79 -205 0
-76 -205 0
-78 -204 0
-77 -202 0
-80 -205 0
-78 -205 0
-76 -201 0
-77 -203 0
-80 -204 0
-80 -202 0
-78 -203 0
-78 -202 0
-77 -205 0
-80 -203 0
-76 -202 0
-79 -201 0
-78 -201 0
-82 -125 0
-84 -122 0
-82 -121 0
-83 -125 0
-84 -123 0
-85 -122 0
-83 -121 0
-82 -124 0
-83 -124 0
-84 -125 0
-83 -123 0
-82 -123 0
-83 -122 0
-81 -123 0
-84 -124 0
-81 -122 0
-81 -125 0
-85 -125 0
-85 -124 0
-85 -123 0
-84 -121 0
-81 -121 0
-81 -167 0
-82 -167 0
-82 -170 0
-81 -168 0
-85 -167 0
-83 -169 0
-84 -168 0
-84 -166 0
-83 -166 0
-82 -169 0
-84 -170 0
-85 -166 0
-83 -170 0
-85 -169 0
-84 -169 0
-81 -169 0
-85 -168 0
-81 -166 0
-83 -167 0
-82 -168 0
-81 -170 0
-83 -168 0
-85 -174 0
-83 -174 0
-84 -175 0
-83 -171 0
-85 -171 0
-84 -174 0
-81 -171 0
-84 -171 0
-83 -172 0
-85 -173 0
-83 -175 0
-81 -174 0
-83 -173 0
-82 -174 0
-81 -175 0
-84 -172 0
-84 -173 0
-82 -173 0
-82 -171 0
-85 -175 0
-82 -172 0
-81 -172 0
-81 -206 0
-81 -210 0
-82 -210 0
-81 -207 0
-81 -208 0
-83 -207 0
-85 -207 0
-82 -207 0
-82 -206 0
-84 -206 0
-84 -208 0
-85 -208 0
-82 -209 0
-83 -209 0
-84 -209 0
-85 -209 0
-85 -206 0
-83 -208 0
-83 -206 0
-84 -207 0
-81 -209 0
-85 -210 0
-90 -177 0
-87 -176 0
-89 -176 0
-86 -177 0
-86 -179 0
-86 -176 0
-86 -178 0
-88 -178 0
-89 -177 0
-90 -180 0
-90 -178 0
-87 -179 0
-89 -180 0
-86 -180 0
-89 -178 0
-88 -176 0
-90 -179 0
-90 -176 0
-87 -177 0
-88 -177 0
-88 -180 0
-88 -179 0
-94 -109 0
-95 -108 0
-93 -107 0
-91 -106 0
-93 -110 0
-91 -110 0
-92 -106 0
-92 -107 0
-95 -110 0
-95 -107 0
-93 -109 0
-94 -110 0
-93 -108 0
-91 -108 0
-95 -106 0
-91 -107 0
-92 -108 0
-92 -110 0
-94 -106 0
-91 -109 0
-93 -106 0
-94 -107 0
-94 -144 0
-94 -141 0
-93 -142 0
-92 -143 0
-92 -144 0
-92 -142 0
-92 -141 0
-91 -145 0
-94 -145 0
-95 -145 0
-93 -144 0
-95 -144 0
-92 -145 0
-91 -141 0
-94 -142 0
-91 -142 0
-95 -141 0
-93 -143 0
-95 -143 0
-91 -144 0
-93 -141 0
-94 -143 0
-93 -183 0
-94 -184 0
-92 -182 0
-91 -185 0
-92 -183 0
-94 -182 0
-92 -185 0
-91 -183 0
-92 -184 0
-92 -181 0
-95 -185 0
-93 -185 0
-91 -182 0
-94 -183 0
-93 -184 0
-95 -183 0
-94 -181 0
-91 -181 0
-91 -184 0
-93 -181 0
-94 -185 0
-95 -182 0
-100 -134 0
-98 -132 0
-99 -135 0
-97 -133 0
-100 -133 0
-97 -132 0
-97 -131 0
-99 -132 0
-97 -135 0
-96 -134 0
-96 -133 0
-96 -131 0
-99 -134 0
-100 -131 0
-98 -131 0
-99 -133 0
-99 -131 0
-98 -135 0
-96 -132 0
-96 -135 0
-100 -132 0
-97 -134 0
-96 -157 0
-96 -156 0
-100 -158 0
-97 -156 0
-98 -158 0
-99 -157 0
-100 -159 0
-99 -158 0
-98 -160 0
-98 -159 0
-97 -159 0
-96 -160 0
-97 -158 0
-97 -157 0
-100 -157 0
-99 -160 0
-100 -160 0
-99 -159 0
-96 -159 0
-97 -160 0
-98 -157 0
-96 -158 0
-97 -208 0
-100 -207 0
-100 -206 0
-96 -207 0
-99 -207 0
-100 -209 0
-98 -208 0
-100 -210 0
-98 -206 0
-96 -206 0
-97 -210 0
-96 -208 0
-97 -209 0
-99 -209 0
-98 -209 0
-97 -206 0
-99 -210 0
-98 -207 0
-96 -209 0
-97 -207 0
-100 -208 0
-98 -210 0
-105 -111 0
-105 -114 0
-103 -112 0
-102 -111 0
-101 -115 0
-104 -113 0
-101 -111 0
-101 -112 0
-104 -114 0
-104 -111 0
-104 -112 0
-105 -115 0
-102 -115 0
-103 -114 0
-103 -115 0
-102 -112 0
-105 -112 0
-105 -113 0
-101 -114 0
-101 -113 0
-103 -111 0
-103 -113 0
-103 -167 0
-105 -168 0
-105 -170 0
-103 -166 0
-101 -170 0
-102 -167 0
-104 -170 0
-105 -166 0
-101 -168 0
-103 -168 0
-101 -167 0
-102 -169 0
-104 -167 0
-102 -170 0
-101 -166 0
-102 -168 0
-104 -166 0
-104 -168 0
-101 -169 0
-105 -169 0
-103 -170 0
-102 -166 0
-104 -212 0
-105 -213 0
-102 -212 0
-105 -212 0
-105 -215 0
-101 -211 0
-102 -215 0
-104 -213 0
-102 -213 0
-103 -211 0
-105 -211 0
-103 -214 0
-103 -215 0
-103 -213 0
-104 -215 0
-101 -214 0
-105 -214 0
-101 -215 0
-104 -214 0
-101 -212 0
-102 -211 0
-102 -214 0
-109 -151 0
-107 -155 0
-108 -152 0
-106 -152 0
-107 -151 0
-106 -153 0
-108 -153 0
-109 -154 0
-106 -151 0
-109 -152 0
-106 -154 0
-110 -155 0
-107 -153 0
-110 -151 0
-107 -154 0
-108 -151 0
-110 -153 0
-109 -153 0
-108 -155 0
-107 -152 0
-108 -154 0
-110 -154 0
-114 -163 0
-115 -165 0
-114 -161 0
-113 -165 0
-112 -162 0
-113 -164 0
-113 -162 0
-111 -164 0
-113 -163 0
-115 -164 0
-115 -161 0
-112 -164 0
-111 -163 0
-115 -162 0
-111 -165 0
-112 -161 0
-114 -164 0
-112 -163 0
-115 -163 0
-112 -165 0
-113 -161 0
-111 -161 0
-115 -184 0
-115 -182 0
-113 -185 0
-113 -183 0
-115 -183 0
-112 -181 0
-112 -185 0
-112 -183 0
-112 -184 0
-113 -182 0
-115 -185 0
-114 -181 0
-111 -182 0
-114 -182 0
-111 -183 0
-113 -181 0
-114 -183 0
-114 -185 0
-115 -181 0
-111 -184 0
-114 -184 0
-113 -184 0
-119 -136 0
-117 -140 0
-119 -138 0
-116 -136 0
-120 -136 0
-117 -139 0
-116 -137 0
-116 -138 0
-119 -137 0
-120 -138 0
-116 -140 0
-117 -137 0
-119 -140 0
-117 -138 0
-118 -136 0
-120 -137 0
-118 -137 0
-118 -140 0
-120 -139 0
-117 -136 0
-118 -138 0
-116 -139 0
-116 -166 0
-120 -168 0
-118 -168 0
-120 -167 0
-118 -170 0
-119 -166 0
-117 -169 0
-117 -166 0
-118 -169 0
-116 -169 0
-120 -166 0
-118 -166 0
-120 -169 0
-116 -168 0
-117 -167 0
-119 -169 0
-117 -170 0
-119 -168 0
-119 -170 0
-116 -167 0
-116 -170 0
-120 -170 0
-120 -172 0
-119 -171 0
-117 -175 0
-119 -175 0
-117 -174 0
-118 -175 0
-119 -174 0
-116 -172 0
-116 -173 0
-117 -171 0
-118 -172 0
-120 -173 0
-116 -175 0
-117 -173 0
-117 -172 0
-116 -171 0
-116 -174 0
-119 -172 0
-118 -174 0
-118 -173 0
-120 -175 0
-120 -174 0
-129 -140 0
-127 -139 0
-130 -138 0
-126 -136 0
-128 -139 0
-128 -140 0
-130 -139 0
-127 -137 0
-129 -137 0
-128 -138 0
-126 -137 0
-128 -137 0
-129 -138 0
-127 -140 0
-127 -136 0
-126 -139 0
-128 -136 0
-129 -139 0
-126 -138 0
-130 -136 0
-127 -138 0
-130 -140 0
-127 -210 0
-128 -207 0
-130 -209 0
-126 -207 0
-130 -207 0
-128 -206 0
-126 -206 0
-126 -208 0
-127 -207 0
-130 -210 0
-129 -207 0
-130 -206 0
-129 -206 0
-126 -209 0
-127 -208 0
-128 -209 0
-126 -210 0
-127 -209 0
-127 -206 0
-128 -208 0
-128 -210 0
-129 -208 0
-132 -152 0
-133 -152 0
-134 -154 0
-133 -151 0
-134 -151 0
-131 -155 0
-131 -151 0
-131 -153 0
-132 -155 0
-132 -153 0
-135 -152 0
-134 -152 0
-131 -154 0
-135 -155 0
-132 -151 0
-133 -155 0
-131 -152 0
-133 -153 0
-133 -154 0
-134 -155 0
-135 -153 0
-135 -151 0
-133 -160 0
-131 -156 0
-133 -156 0
-134 -158 0
-131 -159 0
-135 -160 0
-133 -157 0
-132 -157 0
-135 -157 0
-134 -159 0
-135 -159 0
-134 -157 0
-134 -160 0
-132 -156 0
-132 -158 0
-131 -158 0
-134 -156 0
-131 -157 0
-135 -156 0
-133 -158 0
-135 -158 0
-132 -160 0
-134 -197 0
-131 -199 0
-132 -196 0
-133 -196 0
-133 -197 0
-132 -199 0
-134 -200 0
-133 -200 0
-131 -198 0
-131 -197 0
-133 -198 0
-135 -199 0
-135 -198 0
-131 -196 0
-132 -198 0
-134 -199 0
-132 -197 0
-135 -196 0
-135 -197 0
-134 -198 0
-131 -200 0
-134 -196 0
-140 -147 0
-140 -150 0
-138 -147 0
-139 -147 0
-136 -148 0
-140 -146 0
-139 -150 0
-137 -147 0
-136 -150 0
-137 -148 0
-137 -146 0
-136 -149 0
-136 -146 0
-138 -146 0
-139 -148 0
-140 -149 0
-136 -147 0
-138 -149 0
-137 -150 0
-140 -148 0
-138 -148 0
-139 -146 0
-137 -177 0
-139 -178 0
-136 -178 0
-136 -177 0
-138 -178 0
-140 -180 0
-140 -177 0
-138 -177 0
-139 -180 0
-140 -178 0
-140 -176 0
-138 -180 0
-139 -177 0
-139 -176 0
-136 -176 0
-137 -176 0
-138 -176 0
-137 -179 0
-140 -179 0
-139 -179 0
-137 -180 0
-137 -178 0
-147 -163 0
-146 -163 0
-148 -162 0
-146 -162 0
-146 -161 0
-149 -161 0
-148 -165 0
-147 -164 0
-147 -162 0
-149 -162 0
-148 -163 0
-149 -164 0
-146 -165 0
-147 -161 0
-149 -163 0
-148 -164 0
-150 -163 0
-146 -164 0
-147 -165 0
-150 -161 0
-148 -161 0
-150 -165 0
-160 -201 0
-156 -205 0
-160 -204 0
-159 -205 0
-156 -204 0
-157 -204 0
-157 -201 0
-160 -205 0
-159 -204 0
-156 -203 0
-158 -201 0
-159 -203 0
-157 -205 0
-159 -202 0
-157 -203 0
-160 -202 0
-156 -201 0
-158 -205 0
-159 -201 0
-158 -204 0
-158 -202 0
-157 -202 0
-182 -193 0
-182 -195 0
-181 -192 0
-183 -191 0
-181 -195 0
-183 -195 0
-183 -194 0
-183 -192 0
-185 -195 0
-184 -195 0
-185 -191 0
-185 -194 0
-182 -191 0
-181 -191 0
-181 -194 0
-185 -193 0
-185 -192 0
-184 -191 0
-183 -193 0
-181 -193 0
-184 -194 0
-182 -194 0
-181 -217 0
-184 -220 0
-185 -219 0
-183 -219 0
-184 -218 0
-183 -218 0
-182 -220 0
-185 -220 0
-181 -218 0
-181 -219 0
-181 -216 0
-184 -216 0
-182 -219 0
-182 -218 0
-183 -216 0
-184 -217 0
-185 -218 0
-181 -220 0
-183 -217 0
-183 -220 0
-182 -216 0
-185 -217 0
